c 
c G(k,n,p) graph
c graph gen seed     : 19298
c number of vertices : 80
c max number of edges: 1600
c number of classes  : 2
c edge density       : 0.100000
c edge probability   : 0.200000
c data structure     : sparse
c
c           Graph Stats
c number of vertices  : 80
c nonisolated vertices: 80
c number of edges     : 341
c edge density        : 0.107911
c max degree          : 17
c avg degree          : 8.53
c min degree          : 2
p col 80 341
e 1 79
e 1 62
e 1 56
e 1 19
e 1 18
e 1 10
e 2 80
e 2 67
e 2 66
e 2 65
e 2 64
e 2 63
e 2 52
e 2 50
e 2 43
e 2 34
e 2 28
e 2 23
e 3 66
e 3 63
e 3 55
e 3 52
e 3 46
e 3 26
e 3 23
e 3 20
e 3 15
e 3 11
e 4 66
e 4 52
e 4 50
e 4 48
e 4 28
e 4 25
e 4 23
e 4 13
e 4 6
e 5 71
e 5 60
e 5 54
e 5 47
e 5 46
e 5 32
e 5 26
e 5 13
e 6 78
e 6 77
e 6 75
e 6 68
e 6 56
e 6 29
e 6 18
e 6 10
e 7 80
e 7 66
e 7 59
e 7 52
e 7 15
e 7 13
e 8 70
e 8 61
e 8 60
e 8 34
e 8 26
e 8 13
e 9 79
e 9 62
e 9 57
e 9 44
e 9 41
e 9 31
e 9 14
e 10 69
e 10 52
e 10 28
e 10 26
e 10 13
e 11 78
e 11 77
e 11 76
e 11 75
e 11 53
e 11 44
e 11 40
e 11 14
e 12 70
e 12 59
e 12 27
e 12 26
e 12 25
e 13 72
e 13 68
e 13 24
e 14 80
e 14 67
e 14 51
e 14 47
e 14 46
e 14 43
e 14 34
e 14 28
e 14 20
e 14 16
e 14 15
e 15 78
e 15 76
e 15 73
e 15 68
e 15 62
e 15 30
e 15 22
e 16 77
e 16 75
e 16 74
e 16 62
e 16 49
e 16 45
e 16 36
e 16 29
e 17 80
e 17 69
e 17 65
e 17 63
e 17 60
e 17 59
e 17 52
e 17 35
e 17 26
e 17 20
e 18 80
e 18 70
e 18 61
e 18 55
e 18 54
e 18 32
e 19 80
e 19 70
e 19 55
e 19 52
e 19 43
e 19 35
e 19 32
e 19 21
e 20 79
e 20 78
e 20 73
e 20 72
e 20 56
e 20 53
e 20 44
e 20 31
e 20 29
e 21 78
e 21 73
e 21 72
e 21 49
e 21 41
e 21 38
e 22 60
e 22 48
e 22 43
e 22 42
e 22 37
e 22 32
e 22 27
e 22 25
e 23 74
e 23 56
e 23 49
e 23 44
e 23 36
e 23 29
e 23 24
e 24 52
e 24 48
e 24 27
e 25 74
e 25 73
e 25 68
e 25 62
e 25 40
e 25 39
e 25 36
e 25 33
e 25 29
e 26 79
e 26 76
e 26 74
e 26 57
e 26 53
e 26 45
e 26 33
e 26 31
e 26 30
e 26 29
e 27 79
e 27 78
e 27 75
e 27 57
e 27 56
e 27 49
e 27 29
e 28 49
e 28 45
e 28 39
e 28 36
e 28 30
e 29 71
e 29 69
e 29 67
e 29 65
e 29 61
e 29 59
e 29 47
e 29 32
e 30 61
e 30 55
e 30 43
e 31 64
e 31 63
e 31 51
e 32 79
e 32 77
e 32 74
e 32 57
e 32 40
e 33 71
e 33 54
e 33 51
e 33 48
e 33 46
e 33 42
e 34 79
e 34 78
e 34 72
e 34 68
e 34 56
e 34 39
e 35 78
e 35 62
e 35 57
e 36 66
e 37 72
e 38 70
e 38 67
e 38 65
e 38 64
e 38 55
e 38 50
e 38 47
e 38 46
e 39 66
e 39 52
e 39 51
e 39 50
e 39 48
e 39 47
e 39 42
e 40 70
e 40 64
e 40 60
e 41 69
e 41 66
e 41 60
e 41 51
e 42 74
e 42 56
e 42 44
e 43 79
e 43 72
e 43 68
e 43 49
e 43 45
e 44 71
e 44 61
e 44 50
e 44 47
e 45 66
e 45 59
e 45 52
e 45 47
e 47 57
e 48 78
e 49 60
e 49 54
e 50 78
e 50 68
e 51 76
e 51 73
e 51 72
e 51 53
e 52 75
e 52 74
e 52 68
e 52 62
e 52 58
e 52 57
e 52 56
e 53 80
e 53 70
e 53 69
e 53 61
e 53 55
e 53 54
e 54 77
e 54 73
e 55 72
e 56 80
e 56 71
e 56 69
e 56 65
e 56 63
e 57 70
e 58 70
e 58 69
e 59 79
e 59 78
e 59 72
e 60 75
e 60 74
e 61 79
e 61 77
e 61 76
e 62 71
e 63 79
e 64 77
e 64 76
e 64 75
e 64 74
e 65 79
e 65 75
e 66 74
e 67 78
e 67 74
e 69 77
e 70 77
e 70 75
e 71 77
e 75 80
e 77 80
e 79 80
